experiment/data/lkh-res/Vrp-Set-X-n157/Vrp-Set-X-n157-lkh/0.lkh1.vrp
NAME : 0
COMMENT : CVRP Instance
TYPE : CVRP
DIMENSION : 157
EDGE_WEIGHT_TYPE : EUC_2D
CAPACITY : 12
NODE_COORD_SECTION
1	76900	25900
2	9100	37700
3	10800	33800
4	81600	56700
5	72500	52000
6	11700	35700
7	76600	55900
8	9000	41700
9	25500	43000
10	6300	38400
11	3500	27600
12	12200	31800
13	8500	32200
14	26700	34800
15	93700	54600
16	86500	46100
17	86300	54700
18	72400	43100
19	14800	14400
20	24300	57100
21	87100	51200
22	78200	59600
23	7700	27200
24	77600	65000
25	16600	37100
26	6900	23900
27	97200	60700
28	32000	52100
29	9100	43400
30	2000	30500
31	8100	27100
32	77600	66900
33	83000	55300
34	14800	24300
35	16000	20200
36	74100	52700
37	87700	56100
38	58700	55100
39	80800	43500
40	2600	27800
41	5800	39400
42	75500	44400
43	81700	55700
44	16500	36700
45	21600	51000
46	12400	33000
47	9600	58700
48	13200	36900
49	16300	23400
50	91500	49200
51	75300	65700
52	16100	31900
53	3700	22700
54	89800	74700
55	77000	52400
56	74500	58200
57	69500	46900
58	12400	35500
59	1100	28300
60	25800	40600
61	7200	33500
62	71300	39900
63	86600	62600
64	21400	34400
65	21300	34900
66	86400	57700
67	9800	44000
68	70100	51200
69	88400	55900
70	84200	51800
71	12500	37900
72	35200	41000
73	20600	22800
74	82500	59200
75	9300	25200
76	86300	51100
77	9800	34700
78	11500	32600
79	7100	39200
80	9600	24800
81	6500	40400
82	7500	34200
83	14000	30000
84	12900	34000
85	12900	27300
86	84600	69600
87	10900	46300
88	86300	58600
89	13900	35600
90	7700	35100
91	15400	32200
92	23100	32300
93	11500	39400
94	84400	55800
95	9800	45400
96	73900	56800
97	17900	44300
98	86200	61800
99	76400	76400
100	84400	55400
101	17400	31900
102	70300	31900
103	15100	45300
104	86300	56900
105	7200	47300
106	63200	57500
107	82300	57800
108	2600	4200
109	4700	38100
110	7100	33600
111	75400	48400
112	13700	46500
113	8000	35500
114	17200	29600
115	2800	31000
116	75400	57900
117	53100	66200
118	8700	38200
119	86600	48100
120	9300	33700
121	94200	56700
122	78800	56700
123	82400	45100
124	92600	90100
125	18200	50000
126	9800	38400
127	10400	37000
128	4800	46200
129	95200	62900
130	23900	32400
131	13800	51600
132	74700	60500
133	13600	46000
134	74800	62400
135	4300	26800
136	79200	59700
137	9500	35200
138	10900	41300
139	6700	22400
140	10400	38600
141	81700	67200
142	18300	36000
143	92200	65200
144	77900	41900
145	86300	72100
146	4000	45600
147	6600	39500
148	86200	46500
149	38300	35700
150	30700	43400
151	23300	42100
152	32900	28000
153	62300	55400
154	10300	34900
155	73600	68800
156	7500	26600
157	17400	40600
DEMAND_SECTION
1	0
2	1
3	1
4	1
5	1
6	1
7	1
8	1
9	1
10	1
11	1
12	1
13	1
14	1
15	1
16	1
17	1
18	1
19	1
20	1
21	1
22	1
23	1
24	1
25	1
26	1
27	1
28	1
29	1
30	1
31	1
32	1
33	1
34	1
35	1
36	1
37	1
38	1
39	1
40	1
41	1
42	1
43	1
44	1
45	1
46	1
47	1
48	1
49	1
50	1
51	1
52	1
53	1
54	1
55	1
56	1
57	1
58	1
59	1
60	1
61	1
62	1
63	1
64	1
65	1
66	1
67	1
68	1
69	1
70	1
71	1
72	1
73	1
74	1
75	1
76	1
77	1
78	1
79	1
80	1
81	1
82	1
83	1
84	1
85	1
86	1
87	1
88	1
89	1
90	1
91	1
92	1
93	1
94	1
95	1
96	1
97	1
98	1
99	1
100	1
101	1
102	1
103	1
104	1
105	1
106	1
107	1
108	1
109	1
110	1
111	1
112	1
113	1
114	1
115	1
116	1
117	1
118	1
119	1
120	1
121	1
122	1
123	1
124	1
125	1
126	1
127	1
128	1
129	1
130	1
131	1
132	1
133	1
134	1
135	1
136	1
137	1
138	1
139	1
140	1
141	1
142	1
143	1
144	1
145	1
146	1
147	1
148	1
149	1
150	1
151	1
152	1
153	1
154	1
155	1
156	1
157	1
DEPOT_SECTION
1
-1
EOF
