experiment/data/lkh-res/Vrp-Set-X-n157/Vrp-Set-X-n157-lkh/0.lkh1.tour
NAME : 0.1688508.tour
COMMENT : Length = 1688508
COMMENT : Found by LKH-3 [Keld Helsgaun] Tue Apr  9 03:28:22 2024
TYPE : TOUR
DIMENSION : 169
TOUR_SECTION
1
17
104
66
88
98
63
143
129
27
121
15
50
167
149
14
64
65
142
44
25
157
151
9
150
72
169
3
120
82
90
113
137
77
154
6
58
48
89
165
16
148
119
76
21
69
37
94
100
70
123
39
160
18
68
5
36
7
116
56
96
106
153
57
62
158
71
140
126
79
147
81
41
109
10
118
2
127
164
152
114
83
12
78
46
84
91
52
101
92
130
162
13
61
110
115
30
59
40
11
135
53
108
19
159
144
33
43
4
107
74
136
22
122
55
111
42
161
60
97
103
133
112
87
95
67
29
8
138
93
163
35
139
26
156
23
31
75
80
85
34
49
73
168
24
32
141
86
145
54
124
99
155
51
134
132
166
38
117
20
47
146
128
105
131
125
45
28
102
-1
EOF
